Instance name : SB_bar-n100-6
Authors : 
Date : 
Reference 
Solution
Route 1 : 5 55 37 47 97 30 40 48 87 11 80 90 9 98 59 61 24 50 46 100 96 74 
Route 2 : 43 93 15 22 34 65 29 72 84 16 66 79 42 19 28 92 6 56 13 69 23 73 26 78 3 49 63 76 53 99 33 83 
Route 3 : 4 31 32 54 81 7 57 82 20 18 8 70 1 51 68 17 2 67 45 95 35 14 85 64 52 58 39 27 77 36 89 86 
Route 4 : 38 25 88 41 75 12 91 62 21 71 44 10 60 94 
